
Gurobi 8.1.1 (linux64, Java) logging started Tue Jun  4 10:45:06 2019

Academic license - for non-commercial use only
Optimize a model with 1799 rows, 360600 columns and 721798 nonzeros
Variable types: 0 continuous, 360600 integer (360600 binary)
Coefficient statistics:
  Matrix range     [1e+00, 2e+04]
  Objective range  [1e+00, 1e+00]
  Bounds range     [1e+00, 1e+00]
  RHS range        [1e+00, 1e+00]
Presolve time: 2.31s
Presolved: 1799 rows, 360600 columns, 721798 nonzeros
Variable types: 0 continuous, 360600 integer (360600 binary)
Found heuristic solution: objective 600.0000000

Root simplex log...

Iteration    Objective       Primal Inf.    Dual Inf.      Time
    3747    1.9669352e+02   4.184947e+04   0.000000e+00      5s
    5947    1.9816455e+02   9.683572e+04   0.000000e+00     10s
    7738    1.9817115e+02   4.426285e+03   0.000000e+00     15s
    7905    1.9800000e+02   0.000000e+00   0.000000e+00     16s

Root relaxation: objective 1.980000e+02, 7905 iterations, 12.95 seconds
Total elapsed time = 46.15s
Total elapsed time = 68.09s
Total elapsed time = 73.91s

    Nodes    |    Current Node    |     Objective Bounds      |     Work
 Expl Unexpl |  Obj  Depth IntInf | Incumbent    BestBd   Gap | It/Node Time

     0     0  198.00000    0  898  600.00000  198.00000  67.0%     -   88s
H    0     0                     369.0000000  198.00000  46.3%     -   88s
     0     0  198.00000    0  342  369.00000  198.00000  46.3%     -  103s
H    0     0                     199.0000000  198.00000  0.50%     -  105s
     0     0  198.00000    0  405  199.00000  198.00000  0.50%     -  107s
     0     0  198.00000    0  282  199.00000  198.00000  0.50%     -  122s
     0     0  198.00000    0  212  199.00000  198.00000  0.50%     -  133s
     0     0  198.00000    0  306  199.00000  198.00000  0.50%     -  134s
     0     0  198.00000    0  342  199.00000  198.00000  0.50%     -  139s
     0     0  198.00000    0  294  199.00000  198.00000  0.50%     -  145s
     0     0  198.00000    0  282  199.00000  198.00000  0.50%     -  148s
     0     0  198.00000    0  229  199.00000  198.00000  0.50%     -  182s
     0     0  198.00000    0  316  199.00000  198.00000  0.50%     -  183s
     0     0  198.00000    0  354  199.00000  198.00000  0.50%     -  205s
     0     0  198.00000    0  294  199.00000  198.00000  0.50%     -  212s
     0     0  198.00000    0  272  199.00000  198.00000  0.50%     -  215s
     0     2  198.00000    0  272  199.00000  198.00000  0.50%     -  223s
     5     2 infeasible    3       199.00000  198.00000  0.50%  2108  225s
     9     4  198.00000    5  346  199.00000  198.00000  0.50%  1423  235s
    11     4 infeasible    6       199.00000  198.00000  0.50%  1236  240s
    15     6  198.00000    7  329  199.00000  198.00000  0.50%  1091  248s
    17     8  198.00000    8  327  199.00000  198.00000  0.50%   980  251s
    19     6 infeasible    7       199.00000  198.00000  0.50%   879  255s
    23     6  198.00000    9  355  199.00000  198.00000  0.50%   826  262s
    25     8  198.00000   10  363  199.00000  198.00000  0.50%   770  265s
    29     8  198.00000   11  386  199.00000  198.00000  0.50%   718  272s
    31     8  198.00000   11  364  199.00000  198.00000  0.50%   672  275s
    35    12  198.00000   12  367  199.00000  198.00000  0.50%   641  282s
    37    14  198.00000   13  366  199.00000  198.00000  0.50%   608  285s
    41    16  198.00000   15  352  199.00000  198.00000  0.50%   589  294s
    45    18  198.00000   17  354  199.00000  198.00000  0.50%   589  306s
    52    24  198.00000   21  347  199.00000  198.00000  0.50%   589  327s
    64    25  198.00000   22  343  199.00000  198.00000  0.50%   577  355s
    79    39  198.00000   27  350  199.00000  198.00000  0.50%   620  397s
   105    48  198.00000   34  351  199.00000  198.00000  0.50%   535  450s
   140    77  198.00000   43  347  199.00000  198.00000  0.50%   483  512s
   178    98 infeasible   56       199.00000  198.00000  0.50%   427  581s
   221   132  198.00000   67  352  199.00000  198.00000  0.50%   420  600s

Cutting planes:
  Cover: 489
  Clique: 52
  MIR: 52
  StrongCG: 52

Explored 230 nodes (410334 simplex iterations) in 600.05 seconds
Thread count was 4 (of 4 available processors)

Solution count 3: 199 369 600 

Time limit reached
Best objective 1.990000000000e+02, best bound 1.980000000000e+02, gap 0.5025%
